
Gurobi 6.5.2 (linux64) logging started Wed Mar 15 12:47:39 2017


Gurobi 6.5.2 (linux64) logging started Wed Mar 15 12:47:39 2017

Optimize a model with 101 rows, 663 columns and 1327 nonzeros
Coefficient statistics:
  Matrix range    [1e+00, 2e+00]
  Objective range [2e+00, 1e+02]
  Bounds range    [1e+00, 1e+00]
  RHS range       [1e+00, 1e+00]
Presolve removed 51 rows and 50 columns
Presolve time: 0.00s
Presolved: 50 rows, 613 columns, 1226 nonzeros
Variable types: 0 continuous, 613 integer (613 binary)

Root relaxation: objective 8.510000e+02, 71 iterations, 0.00 seconds

    Nodes    |    Current Node    |     Objective Bounds      |     Work
 Expl Unexpl |  Obj  Depth IntInf | Incumbent    BestBd   Gap | It/Node Time

     0     0  852.50000    0    6          -  852.50000      -     -    0s
     0     0  852.50000    0    6          -  852.50000      -     -    0s
     0     2  852.50000    0    6          -  852.50000      -     -    0s
*  228   139              53     948.0000000  860.00000  9.28%   3.9    0s
*  265    82               6     876.0000000  860.00000  1.83%   4.1    0s
*  743     1               7     874.0000000  862.00000  1.37%   4.3    0s

Cutting planes:
  Lazy constraints: 24

Explored 834 nodes (3541 simplex iterations) in 0.11 seconds
Thread count was 8 (of 8 available processors)

Optimal solution found (tolerance 1.00e-04)
Best objective 8.740000000000e+02, best bound 8.740000000000e+02, gap 0.0%
